Route #1: 9 62 61 30 57 3
Route #2: 60 64 40 34 6 36 42 44
Route #3: 53 39 4 14 50 46
Route #4: 11 35 49 1 19 20
Route #5: 7 8 23 37 65 32
Route #6: 51 59 24 29 10 38
Route #7: 17 27 43 16 41 66 2 33
Route #8: 47 26 18 31 12 58
Route #9: 13 28 56 15 5 63
Route #10: 48 25 21 55 54 22 52 45
Cost 1106